0001 5
0002 8
0003 6
0004 11
0005 18
0006 1
0007 18
0008 9
0009 13
0010 15
0011 9
0012 13
0013 1
0014 3
0015 12
0016 5
0017 18
0018 11
0019 7
0020 13
0021 18
0022 17
0023 18
0024 7
0025 4
0026 4
0027 16
0028 1
0029 14
0030 3
0031 9
0032 18
0033 15
0034 8
0035 10
0036 6
0037 11
0038 17
0039 16
0040 2
0041 12
0042 8
0043 8
0044 16
0045 12
0046 6
0047 9
0048 16
0049 3
0050 13
0051 7
0052 11
0053 10
0054 6
0055 9
0056 18
0057 5
0058 7
0059 2
0060 18
0061 9
0062 18
0063 9
0064 13
0065 1
0066 11
0067 16
0068 16
0069 5
0070 16
0071 13
0072 12
0073 8
0074 11
0075 7
0076 14
0077 14
0078 9
0079 16
0080 3
0081 18
0082 3
0083 5
0084 9
0085 8
0086 11
0087 2
0088 1
0089 5
0090 11
0091 1
0092 18
0093 5
0094 9
0095 7
0096 1
0097 5
0098 7
0099 15
0100 18
0101 18
0102 16
0103 18
0104 2
0105 15
0106 5
0107 7
0108 18
0109 3
0110 11
0111 17
0112 13
0113 12
0114 5
0115 12
0116 9
0117 1
0118 13
0119 5
0120 9
0121 5
0122 2
0123 15
0124 11
0125 1
0126 1
0127 18
0128 18
0129 16
0130 18
0131 18
0132 4
0133 16
0134 7
0135 10
0136 5
0137 1
0138 14
0139 16
0140 12
0141 16
0142 14
0143 18
0144 18
0145 9
0146 1
0147 18
0148 16
0149 11
0150 4
0151 8
0152 3
0153 16
0154 14
0155 8
0156 18
0157 15
0158 8
0159 14
0160 2
0161 18
0162 12
0163 16
0164 18
0165 2
0166 8
0167 5
0168 1
0169 4
0170 2
0171 4
0172 11
0173 11
0174 11
0175 9
0176 10
0177 18
0178 1
0179 18
0180 7
0181 1
0182 16
0183 4
0184 8
0185 12
0186 4
0187 18
0188 5
0189 7
0190 6
0191 3
0192 9
0193 11
0194 18
0195 18
0196 1
0197 9
0198 11
0199 6
0200 10
0201 17
0202 13
0203 15
0204 2
0205 1
0206 4
0207 13
0208 8
0209 1
0210 11
0211 7
0212 3
0213 16
0214 7
0215 10
0216 16
0217 3
0218 3
0219 18
0220 9
0221 11
0222 5
0223 7
0224 11
0225 13
0226 18
0227 16
0228 6
0229 15
0230 13
0231 13
0232 11
0233 3
0234 16
0235 3
0236 1
0237 5
0238 8
0239 6
0240 3
0241 3
0242 15
0243 9
0244 9
0245 16
0246 16
0247 11
0248 7
0249 5
0250 3
0251 7
0252 15
0253 17
0254 1
0255 11
0256 1
0257 7
0258 5
0259 16
0260 16
0261 12
0262 1
0263 8
0264 15
0265 1
0266 11
0267 4
0268 7
0269 12
0270 16
0271 5
0272 18
0273 14
0274 11
0275 11
0276 9
0277 15
0278 18
0279 13
0280 5
0281 16
0282 7
0283 10
0284 5
0285 1
0286 10
0287 16
0288 18
0289 2
0290 18
0291 4
0292 1
0293 13
0294 6
0295 16
0296 11
0297 18
0298 13
0299 3
0300 13
0301 7
0302 1
0303 7
0304 5
0305 7
0306 9
0307 5
0308 18
0309 13
0310 16
0311 14
0312 5
0313 4
0314 6
0315 10
0316 2
0317 8
0318 11
0319 9
0320 4
0321 14
0322 9
0323 4
0324 9
0325 14
0326 18
0327 12
0328 6
0329 11
0330 3
0331 8
0332 1
0333 18
0334 18
0335 14
0336 10
0337 1
0338 12
0339 1
0340 7
0341 14
0342 1
0343 15
0344 5
0345 15
0346 10
0347 12
0348 16
0349 2
0350 17
0351 13
0352 14
0353 9
0354 7
0355 16
0356 18
0357 1
0358 12
0359 16
0360 3
0361 10
0362 9
0363 5
0364 9
0365 2
0366 15
0367 16
0368 13
0369 5
0370 15
0371 7
0372 16
0373 12
0374 15
0375 18
0376 12
0377 18
0378 8
0379 10
0380 4
0381 1
